10J3M/DAT/10J3MNLA-16.dat
10 3
29.1039 847.037
23.1928 537.906
17.8332 318.023
15.1185 228.569
15.3682 236.1816
21.4672 460.8407
11.4154 130.3114
26.4785 701.111
24.3011 590.5435
31.1981 973.3214
1674.6149