10J3M/SOL/10J3MNLA-16.sol
solution status: optimal solution found
objective value:                     79.8529333333333
x#1#2                               0.868495072436341 	(obj:0)
x#1#3                               0.131504927563659 	(obj:0)
x#2#3                                               1 	(obj:0)
x#3#1                              0.0251794640506637 	(obj:0)
x#3#3                               0.974820535949336 	(obj:0)
x#4#2                                               1 	(obj:0)
x#5#1                               0.777262753999496 	(obj:0)
x#5#3                               0.222737246000504 	(obj:0)
x#6#3                                               1 	(obj:0)
x#7#1                                               1 	(obj:0)
x#8#2                                               1 	(obj:0)
x#9#1                               0.531717237588635 	(obj:0)
x#9#2                               0.468282762411365 	(obj:0)
x#10#1                                              1 	(obj:0)
z                                    79.8529333333333 	(obj:1)
